(set-info :smt-lib-version 2.6)
(set-logic QF_UFLRA)
(set-info :source |
MathSat group

|)
(set-info :category "random")
(set-info :status sat)
(declare-fun f0_1 (Real) Real)
(declare-fun f0_2 (Real Real) Real)
(declare-fun f0_3 (Real Real Real) Real)
(declare-fun f0_4 (Real Real Real Real) Real)
(declare-fun f1_1 (Real) Real)
(declare-fun f1_2 (Real Real) Real)
(declare-fun f1_3 (Real Real Real) Real)
(declare-fun f1_4 (Real Real Real Real) Real)
(declare-fun x0 () Real)
(declare-fun x1 () Real)
(declare-fun x2 () Real)
(declare-fun x3 () Real)
(declare-fun x4 () Real)
(declare-fun x5 () Real)
(declare-fun x6 () Real)
(declare-fun x7 () Real)
(declare-fun x8 () Real)
(declare-fun x9 () Real)
(declare-fun P0 () Bool)
(declare-fun P1 () Bool)
(declare-fun P2 () Bool)
(declare-fun P3 () Bool)
(declare-fun P4 () Bool)
(declare-fun P5 () Bool)
(declare-fun P6 () Bool)
(declare-fun P7 () Bool)
(declare-fun P8 () Bool)
(declare-fun P9 () Bool)
(assert (let ((?v_11 (f0_2 x4 x3)) (?v_30 (f1_2 x7 x4)) (?v_0 (f0_1 x0)) (?v_13 (f0_1 x7)) (?v_68 (f0_1 x3)) (?v_3 (f1_2 x7 x2)) (?v_5 (- (- (* 26 x9) (* 3 x5)) (* 16 x6))) (?v_9 (f1_1 x1)) (?v_1 (f0_2 x1 x2))) (let ((?v_7 (< ?v_1 16)) (?v_46 (< x0 5)) (?v_86 (< x3 1)) (?v_94 (< ?v_9 18)) (?v_43 (= x7 x8)) (?v_83 (< ?v_30 8)) (?v_35 (< ?v_68 15)) (?v_118 (= ?v_0 (f0_2 x4 ?v_68))) (?v_29 (< ?v_13 10)) (?v_99 (< x1 7)) (?v_42 (< x2 22)) (?v_116 (= ?v_3 x8)) (?v_25 (< ?v_13 0)) (?v_27 (< (f1_1 x9) 24)) (?v_12 (< ?v_0 4)) (?v_92 (not P0)) (?v_18 (not P5)) (?v_32 (not P7)) (?v_39 (not P2))) (let ((?v_45 (not ?v_116)) (?v_69 (not ?v_94)) (?v_47 (not P6)) (?v_19 (not P9)) (?v_33 (not ?v_25)) (?v_22 (not P4)) (?v_48 (not ?v_29)) (?v_66 (not ?v_7)) (?v_108 (not ?v_43)) (?v_98 (not ?v_42)) (?v_106 (not ?v_118)) (?v_78 (not ?v_35)) (?v_109 (not ?v_99)) (?v_115 (not ?v_86))) (let ((?v_123 (or ?v_66 ?v_27)) (?v_105 (not ?v_46)) (?v_117 (not P8)) (?v_100 (not P1)) (?v_119 (not ?v_83)) (?v_114 (not P3)) (?v_122 (not ?v_27)) (?v_2 (- (+ (* 26 x8) x8) (* 26 x4)))) (let ((?v_8 (= ?v_2 ?v_0)) (?v_80 (+ (* 22 x4) (* 20 x3) (* 17 x2)))) (let ((?v_57 (< ?v_80 6))) (let ((?v_61 (not ?v_57)) (?v_10 (- (+ x2 (* 20 ?v_3)) (* 19 ?v_30))) (?v_90 (not ?v_8))) (let ((?v_14 (= ?v_10 ?v_9)) (?v_50 (< ?v_2 22))) (let ((?v_56 (not ?v_14)) (?v_127 (not ?v_50)) (?v_104 (= ?v_0 ?v_80))) (let ((?v_124 (not ?v_104)) (?v_44 (< ?v_1 (- 24))) (?v_4 (< ?v_0 (- 27))) (?v_6 (+ (* (- 14) x9) (* 28 x6) (* 10 x1)))) (let ((?v_74 (= x8 ?v_6))) (let ((?v_60 (not ?v_74)) (?v_15 (< (f1_1 x6) (- 8)))) (let ((?v_63 (not ?v_15)) (?v_36 (< ?v_9 (- 6)))) (let ((?v_67 (not ?v_36)) (?v_24 (< ?v_2 (- 19)))) (let ((?v_55 (not ?v_24)) (?v_102 (< ?v_3 (- 2)))) (let ((?v_40 (not ?v_102)) (?v_21 (< (f0_2 ?v_5 ?v_10) (- 17)))) (let ((?v_79 (not ?v_21)) (?v_107 (not ?v_4)) (?v_34 (< (- (- (* (- 5) x2) (* 14 ?v_5)) (* 19 ?v_6)) (- 6)))) (let ((?v_28 (not ?v_34)) (?v_17 (+ (- (* (- 24) x8) (* 23 x7)) (* 20 x4)))) (let ((?v_95 (< (- (+ (* 18 ?v_11) (* 7 ?v_13)) (* 5 ?v_17)) (- 12))) (?v_85 (< (- (- (* (- 27) ?v_11) (* 24 x6)) (* 25 x9)) 4))) (let ((?v_41 (not ?v_85)) (?v_65 (< ?v_0 (- 2))) (?v_16 (< (f0_2 x0 x7) (- 24)))) (let ((?v_70 (not ?v_16)) (?v_75 (< x4 (- 21)))) (let ((?v_23 (not ?v_75)) (?v_31 (+ (* (- 8) x0) (* 6 x2) (* 13 x8)))) (let ((?v_37 (= ?v_31 ?v_3)) (?v_49 (< ?v_6 (- 28)))) (let ((?v_38 (not ?v_49)) (?v_26 (< (f1_2 x8 x9) (- 13)))) (let ((?v_58 (not ?v_26)) (?v_54 (+ (- (* (- 8) x3) (* 6 x6)) (* 8 x9)))) (let ((?v_101 (= ?v_54 x6))) (let ((?v_20 (not ?v_101)) (?v_64 (< ?v_17 4)) (?v_84 (< ?v_31 20)) (?v_103 (< (f0_1 x4) (- 19)))) (let ((?v_82 (not ?v_103)) (?v_71 (+ (* (- 6) x3) (* 16 x9) (* 9 x0)))) (let ((?v_51 (< (f1_1 ?v_71) (- 22))) (?v_59 (< x0 (- 2))) (?v_52 (< (- (- (* 29 x3) (* 4 x3)) (* 4 x6)) (- 11)))) (let ((?v_88 (not ?v_52)) (?v_62 (not ?v_44)) (?v_125 (< x9 (- 19)))) (let ((?v_53 (not ?v_125)) (?v_72 (< ?v_13 (- 3)))) (let ((?v_87 (not ?v_72)) (?v_76 (< ?v_5 (- 5)))) (let ((?v_73 (not ?v_76)) (?v_91 (< ?v_54 11)) (?v_96 (not ?v_51)) (?v_120 (not ?v_64)) (?v_89 (not ?v_65)) (?v_121 (not ?v_37)) (?v_81 (< ?v_71 23))) (let ((?v_77 (not ?v_81)) (?v_112 (< ?v_54 (- 12)))) (let ((?v_110 (not ?v_112)) (?v_93 (or ?v_79 ?v_104)) (?v_97 (not ?v_59)) (?v_113 (not ?v_91)) (?v_111 (not ?v_84)) (?v_126 (not ?v_95))) (and (and (and (and (and (and (and (and (and (and (and (and (and (and (and (and (and (and (and (and (and (and (and (and (and (and (and (and (and (and (and (and (and (and (and (and (and (and (and (and (and (and (and (and (and (and (and (and (and (and (and (and (and (and (and (and (and (and (and (and (and (and (and (and (and (and (and (and (and (and (and (and (and (and (and (and (and (and (and (and (and (and (and (and (and (and (and (and (and (and (and (and (and (and (and (and (and (and (and (and (and (and (and (and (and (and (and (and (and (and (and (and (and (and (and (and (and (and (and (and (and (and (and (and (and (and (and (and (and (and (and (and (and (and (and (and (and (and (and (and (and (and (and (and (and (and (and (and (and (and (and (and (and (and (and (and (and (and (and (and (and (and (and (and (and (and (and (and (and (and (and (and (and (and (and (and (and (and (and (and (and (and (and (and (and (and (and (and (and (and (and (and (and (and (and (and (and (and (and (or (or ?v_44 ?v_4) ?v_8) (or (or ?v_60 ?v_63) ?v_67)) (or (or ?v_92 ?v_7) ?v_18)) (or (or ?v_55 ?v_40) ?v_61)) (or (or ?v_79 ?v_107) ?v_32)) (or (or ?v_28 ?v_39) ?v_12)) (or (or ?v_45 ?v_7) ?v_90)) (or (or ?v_46 ?v_95) P3)) (or (or ?v_69 ?v_14) ?v_41)) (or (or ?v_35 ?v_12) ?v_27)) (or (or ?v_47 ?v_19) ?v_65)) (or (or ?v_70 ?v_23) ?v_33)) (or (or ?v_50 ?v_56) ?v_37)) (or (or ?v_7 ?v_38) ?v_15)) (or (or ?v_58 ?v_16) P2)) (or (or P0 ?v_42) ?v_20)) (or (or ?v_64 ?v_43) ?v_18)) (or (or ?v_19 ?v_20) ?v_22)) (or (or ?v_29 ?v_21) ?v_22)) (or (or ?v_23 ?v_24) ?v_25)) (or (or P1 ?v_26) ?v_27)) (or (or ?v_28 ?v_48) P7)) (or (or ?v_4 P3) ?v_24)) (or (or ?v_83 ?v_84) ?v_32)) (or (or ?v_21 ?v_82) ?v_33)) (or (or ?v_34 ?v_35) P8)) (or (or ?v_66 ?v_36) P4)) (or (or ?v_51 ?v_37) ?v_38)) (or (or ?v_39 ?v_40) ?v_41)) (or (or ?v_59 ?v_19) ?v_88)) (or (or ?v_42 ?v_108) ?v_62)) (or (or ?v_45 ?v_46) ?v_47)) (or (or ?v_48 P7) ?v_15)) (or (or ?v_49 ?v_50) ?v_41)) (or (or P8 ?v_23) ?v_51)) (or (or P3 ?v_52) ?v_53)) (or (or ?v_53 ?v_87) P9)) (or (or ?v_73 ?v_23) ?v_39)) (or (or ?v_26 ?v_49) ?v_21)) (or (or ?v_48 ?v_91) ?v_55)) (or (or ?v_40 ?v_56) ?v_33)) (or (or ?v_57 ?v_96) P6)) (or (or ?v_55 ?v_58) ?v_98)) (or (or ?v_59 ?v_60) ?v_61)) (or (or ?v_47 ?v_62) P8)) (or (or ?v_21 ?v_63) ?v_45)) (or (or ?v_120 ?v_89) ?v_36)) (or (or ?v_25 ?v_47) ?v_4)) (or (or ?v_50 ?v_66) ?v_67)) (or (or ?v_64 ?v_22) ?v_106)) (or (or ?v_69 ?v_66) ?v_57)) (or (or ?v_86 P7) ?v_51)) (or (or ?v_70 ?v_46) ?v_59)) (or (or ?v_121 ?v_18) ?v_70)) (or (or ?v_42 ?v_77) ?v_67)) (or (or ?v_72 ?v_73) ?v_74)) (or (or ?v_75 ?v_76) ?v_78)) (or (or ?v_16 ?v_23) ?v_77)) (or (or ?v_70 ?v_42) ?v_78)) (or (or ?v_53 ?v_127) ?v_110)) (or (or ?v_58 ?v_52) ?v_47)) (or ?v_93 ?v_81)) (or (or ?v_82 ?v_83) ?v_99)) (or (or ?v_97 ?v_51) ?v_42)) (or (or ?v_84 ?v_8) ?v_85)) (or (or ?v_64 ?v_86) ?v_28)) (or (or ?v_18 ?v_87) ?v_69)) (or (or ?v_38 ?v_88) ?v_89)) (or (or ?v_65 ?v_86) P7)) (or (or ?v_90 ?v_56) P0)) (or (or ?v_26 ?v_113) ?v_57)) (or (or ?v_49 ?v_40) ?v_92)) (or ?v_93 ?v_82)) (or (or ?v_23 ?v_94) ?v_28)) (or (or ?v_95 ?v_96) ?v_46)) (or (or P9 ?v_89) ?v_97)) (or (or ?v_90 P7) ?v_21)) (or (or ?v_16 ?v_19) ?v_4)) (or (or ?v_83 ?v_26) ?v_98)) (or (or ?v_70 ?v_44) P3)) (or (or ?v_87 ?v_47) ?v_8)) (or (or ?v_111 ?v_109) P5)) (or (or ?v_51 ?v_84) ?v_47)) (or (or ?v_40 ?v_24) P6)) (or (or ?v_70 ?v_115) ?v_50)) (or ?v_123 ?v_49)) (or (or ?v_105 ?v_64) ?v_42)) (or (or ?v_117 ?v_20) ?v_82)) (or (or ?v_40 ?v_73) ?v_74)) (or (or ?v_85 P6) ?v_29)) (or (or ?v_44 ?v_56) ?v_100)) (or (or ?v_38 ?v_61) ?v_37)) (or (or ?v_90 ?v_100) ?v_24)) (or (or ?v_70 ?v_101) ?v_53)) (or (or ?v_49 ?v_58) ?v_119)) (or (or ?v_102 ?v_8) ?v_95)) (or (or ?v_77 ?v_46) ?v_22)) (or (or P1 ?v_61) ?v_8)) (or (or ?v_57 ?v_88) ?v_84)) (or (or ?v_103 ?v_29) ?v_124)) (or (or ?v_43 ?v_36) ?v_105)) (or (or ?v_61 ?v_43) ?v_86)) (or (or P7 ?v_91) ?v_12)) (or (or ?v_97 ?v_4) P4)) (or (or ?v_90 ?v_73) ?v_91)) (or (or ?v_96 ?v_90) P3)) (or (or ?v_48 ?v_61) ?v_126)) (or (or ?v_47 ?v_36) P3)) (or (or ?v_106 ?v_76) ?v_107)) (or (or ?v_106 ?v_41) ?v_81)) (or (or ?v_104 ?v_27) ?v_79)) (or (or ?v_105 ?v_39) ?v_87)) (or (or ?v_98 ?v_108) ?v_78)) (or (or ?v_56 ?v_90) ?v_102)) (or (or ?v_103 ?v_45) ?v_20)) (or (or P4 ?v_108) P5)) (or (or ?v_41 P3) ?v_95)) (or (or ?v_109 ?v_102) ?v_59)) (or (or ?v_64 ?v_26) ?v_84)) (or (or ?v_91 ?v_26) ?v_62)) (or (or ?v_75 ?v_14) ?v_110)) (or (or P7 P7) ?v_33)) (or (or ?v_39 ?v_73) ?v_105)) (or (or ?v_12 ?v_78) ?v_41)) (or (or ?v_96 ?v_59) P2)) (or (or ?v_110 ?v_107) ?v_100)) (or (or ?v_32 ?v_14) ?v_24)) (or (or P7 ?v_100) ?v_111)) (or (or ?v_112 P9) ?v_114)) (or (or P4 ?v_28) ?v_64)) (or (or ?v_38 ?v_69) ?v_24)) (or (or P9 ?v_82) ?v_15)) (or (or P4 ?v_42) ?v_39)) (or (or ?v_43 ?v_84) ?v_47)) (or (or ?v_37 ?v_95) ?v_16)) (or (or ?v_19 ?v_79) ?v_72)) (or (or ?v_92 ?v_62) ?v_38)) (or (or ?v_29 ?v_113) ?v_78)) (or (or ?v_20 ?v_114) ?v_115)) (or (or ?v_73 ?v_33) ?v_115)) (or (or ?v_49 ?v_65) ?v_46)) (or (or ?v_46 ?v_40) ?v_59)) (or (or ?v_98 ?v_69) ?v_116)) (or (or ?v_122 ?v_45) ?v_28)) (or (or ?v_39 ?v_12) ?v_117)) (or (or ?v_46 ?v_108) ?v_102)) (or (or ?v_74 ?v_108) ?v_88)) (or (or ?v_90 ?v_38) ?v_73)) (or (or ?v_115 ?v_58) ?v_41)) (or (or ?v_118 P1) ?v_78)) (or (or ?v_119 ?v_96) ?v_95)) (or (or ?v_16 ?v_66) ?v_14)) (or (or ?v_8 ?v_53) ?v_81)) (or (or ?v_33 ?v_78) ?v_12)) (or (or ?v_114 ?v_112) ?v_27)) (or (or ?v_120 ?v_8) ?v_121)) (or (or ?v_81 ?v_61) ?v_18)) (or (or ?v_52 ?v_116) ?v_69)) (or (or ?v_16 P7) ?v_8)) (or (or ?v_100 ?v_86) ?v_41)) (or (or ?v_99 ?v_94) ?v_29)) (or (or ?v_114 ?v_90) ?v_122)) (or (or ?v_103 ?v_110) ?v_44)) (or (or ?v_95 ?v_98) ?v_94)) (or (or ?v_44 ?v_90) ?v_107)) (or (or ?v_35 ?v_120) ?v_52)) (or (or ?v_91 P1) ?v_50)) (or (or ?v_34 ?v_105) ?v_15)) (or (or ?v_79 ?v_66) ?v_106)) (or (or P1 ?v_98) ?v_121)) (or (or ?v_81 ?v_115) ?v_28)) (or ?v_123 ?v_124)) (or (or ?v_22 ?v_55) ?v_61)) (or (or ?v_97 ?v_106) P0)) (or (or P2 ?v_115) ?v_89)) (or (or ?v_33 ?v_125) ?v_104)) (or (or ?v_120 ?v_40) ?v_29)) (or (or ?v_28 ?v_60) ?v_21)) (or (or ?v_84 ?v_109) ?v_74)) (or (or ?v_14 ?v_4) ?v_16)) (or (or ?v_37 ?v_90) ?v_126)) (or (or ?v_43 ?v_97) ?v_102)) (or (or ?v_76 ?v_34) ?v_106)) (or (or ?v_34 P9) ?v_124)) (or (or ?v_79 ?v_82) ?v_49)) (or (or ?v_74 ?v_114) ?v_46)) (or (or ?v_75 ?v_74) ?v_44)) (or (or ?v_125 ?v_38) ?v_46)) (or (or ?v_96 ?v_126) ?v_7)) (or (or ?v_44 ?v_110) ?v_49)) (or (or ?v_46 ?v_37) ?v_127)) (or (or ?v_74 ?v_73) P1)) (or (or (not ?v_12) ?v_62) ?v_120)) (or (or ?v_106 ?v_23) ?v_126)) (or (or ?v_103 ?v_43) P3)) (or (or P4 ?v_32) ?v_98)) (or (or ?v_81 ?v_40) ?v_27)) (or (or ?v_42 ?v_50) ?v_51)) (or (or P8 ?v_40) ?v_82)) (or (or ?v_82 ?v_127) ?v_42))))))))))))))))))))))))))))))))))))))
(check-sat)
(exit)
